p edge 17 50
e 1 7
e 1 5
e 1 2
e 1 16
e 1 17
e 2 1
e 3 4
e 3 5
e 4 9
e 4 6
e 4 10
e 4 3
e 5 3
e 5 1
e 6 10
e 6 4
e 7 17
e 7 8
e 7 1
e 8 7
e 9 11
e 9 10
e 9 4
e 10 13
e 10 9
e 10 6
e 10 4
e 11 12
e 11 14
e 11 9
e 12 16
e 12 14
e 12 11
e 13 10
e 14 15
e 14 16
e 14 12
e 14 11
e 15 17
e 15 16
e 15 14
e 16 17
e 16 15
e 16 14
e 16 12
e 16 1
e 17 16
e 17 15
e 17 7
e 17 1
